Single DME
1.0
15.0 0.0 0.0 
0.0 15.0 0.0 
0.0 0.0 15.0 
C H O 
40 100 20 
Direct 
0.11780323435207549 0.6185568888292371 0.6058325426858464 
0.21153195744337144 0.599699903639382 0.5960489317258771 
0.46399141741771144 0.32261780905078824 0.7923652512610876 
0.342118717405509 0.6730836942089605 0.05663116622358425 
0.4323787940166478 0.46865191869844197 0.8977377757465538 
0.3801715879085277 0.5423232150419101 0.9627401985216945 
0.07290926670440664 0.10833536715028179 0.299436075292544 
0.1679155485184713 0.807864101235137 0.5559642009937015 
0.12525127338730566 0.9836088638826431 0.3805905975579511 
0.12631325512370636 0.9169959072156504 0.4630271549327907 
0.5354322175865412 0.9534018883656076 0.6665502513144287 
0.5664220867838831 0.07255664038350508 0.010330460526113505 
0.5559141297223609 0.02275287432873559 0.8109377964955674 
0.5486680368121967 0.02634836401642578 0.881965906531634 
0.29493199036210954 0.7051906352486408 0.8327680185831773 
0.42637284354249444 0.3373502222395236 0.8300002649199079 
0.3699802389257627 0.5729840148429436 0.8273970792490032 
0.3729961442550623 0.4703447924126304 0.8267079091710308 
0.7185663177115996 0.9759935411254616 0.27721006410338256 
0.10567846588194894 0.936929870094255 0.2255544056527384 
0.8665023734984685 0.9409142105380373 0.2744429279127033 
0.9645418462858866 0.9581708837221469 0.2453227016367298 
0.4012098431901208 0.49516605670459984 0.14673213185556241 
0.33616646479894474 0.11086692231837893 0.3622034318644694 
0.3524858638256063 0.35109743509455993 0.23628927878870817 
0.3621629750091048 0.2518241366414368 0.2860491530637565 
0.9453736775080955 0.10606706844928292 0.014155165686110157 
0.8936057859605806 0.11349232002810225 0.20011472024645158 
0.9007592225553228 0.11774275626813828 0.06252785059716288 
0.915310284042572 0.10433474060085454 0.13689244741607093 
0.7367139760527267 0.4633408835057958 0.8063252429951857 
0.5431687599629433 0.253741196211038 0.6113198238868117 
0.6461530656730744 0.40343387015535215 0.7462796185365126 
0.6201975807234275 0.3286738433689477 0.6835914569932449 
0.24650610224739158 0.8356146750811587 0.8723090024478269 
0.20642204562852093 0.15602894169170511 0.8541343616935667 
0.2573950961726812 0.9621586694224651 0.8837809137851363 
0.2159094560136579 0.040766397556114185 0.8611842623668892 
0.017163511853001977 0.7070764259830303 0.6520976287282044 
0.3171857247450003 0.5340086393942705 0.5537877635401496 
0.5066562968196681 0.049689267482573504 0.7050094311606642 
0.47195309869743485 0.8438419905334865 0.5636743201235668 
0.6369306545628367 0.9855679525254781 0.6979048755676616 
0.6137354348762785 0.9936652209296567 0.9958894543847646 
0.4720012575041037 0.06829867511562782 0.008910808982240266 
0.6018591753648792 0.14635068949799682 0.11359922380159695 
0.6596688617267219 0.04411443105712346 0.8449887775737265 
0.5216381042811626 0.12033203424836275 0.856581509417639 
0.5880198353119314 0.9330736919796802 0.8459327772023452 
0.4500320919966775 0.9994231998568851 0.8508371314777059 
0.14234445540065294 0.024749622699636948 0.258475908273653 
0.1887657819518754 0.8780955236204431 0.24281234324880926 
0.8453533395214018 0.07804000181832406 0.9487788030065208 
0.05000064885557893 0.04497457446439863 0.08888747731942673 
0.909835560253899 0.208345938994461 0.9398246249145653 
0.9785474287646176 0.1590938588425471 0.25615890381447837 
0.9040134870045474 0.01718400935579467 0.2651916912716928 
0.8323293381983714 0.14421627287472252 0.19006200312805768 
0.8783177747136939 0.22155485175705109 0.003494922164950509 
0.8013486135216151 0.0836216391128237 0.006594378568304175 
0.011883768520577634 0.14300103412868784 0.19404635400900408 
0.9446459956816509 0.005210740100020436 0.20284807349387915 
0.8606007133342558 0.8400257438604292 0.24067054854589856 
0.8825549627690297 0.9200087340065559 0.37519349869888313 
0.467881002087645 0.35680127178257515 0.8477164665484154 
0.399008208981387 0.22217388236817234 0.7546850396176997 
0.568082313490013 0.35334744117445627 0.7400680997609593 
0.3522277377052795 0.6628464078507474 0.007116772098970141 
0.24270589635397927 0.6718152317799747 0.1287005665633321 
0.355870846076103 0.7760805921236344 0.11608015382605477 
0.5303951676834461 0.5028399171422373 0.845843170739766 
0.42662239602431434 0.5102288050307896 0.9633730344736553 
0.3874755417082326 0.5104872253102128 0.9012339715489905 
0.2821101768261618 0.5115136853203555 0.013051970082226678 
0.9571106368105458 0.9735740020045357 0.1425795829391672 
0.9759029897334602 0.05839225985412853 0.2693072968169446 
0.29969476311518456 0.5150728864260277 0.21594933711429007 
0.5017149399394577 0.5391823938910804 0.10543520642254028 
0.3747893614881947 0.49562644335376965 0.0962484788352303 
0.42353118439256293 0.07457629970470579 0.297767784135533 
0.3373507337208212 0.09233485854392025 0.4324389807250685 
0.2748954208476409 0.03161254866264311 0.4163417613459605 
0.3388498860800115 0.33910326640105865 0.18305111088330364 
0.2507405979516896 0.36087197873855403 0.31441164063281474 
0.4611451858499552 0.23287147027194333 0.21097398666946343 
0.382797574876632 0.2559799033233208 0.33578556360973694 
0.3100802336159341 0.44738053811578965 0.9074966448604171 
0.3033872573899851 0.4465205872146518 0.7541759005101282 
0.07846007879181656 0.04688370119797689 0.21953009289430553 
0.9735446220224465 0.1790108028174835 0.3266920284126928 
0.1775850580659153 0.1305795823864519 0.2855723096754597 
0.18655240392913205 0.855846235661895 0.6401721773929699 
0.08062437663178225 0.7595170699503521 0.5682310331604277 
0.2313417045819951 0.7265719748945776 0.5796880514392364 
0.22907107935603316 0.006081779580039874 0.3843306518487753 
0.1268432587013348 0.9127677841968704 0.30819445766398135 
0.13149208708004778 0.9815468190790116 0.5409180425724645 
0.025795716014786762 0.8953967944434075 0.46987563724597314 
0.36537623249016904 0.7321565813800839 0.7595918115425377 
0.16787734615303454 0.7189421886410631 0.8278822987790665 
0.3260210744070526 0.8796537802130414 0.9752472460414014 
0.1383783166484001 0.7874786979871113 0.8137268996559015 
0.322827095484412 0.7959498006468074 0.8595653644931668 
0.14415907605676767 0.12206348513489651 0.7543281085918764 
0.15047681250890163 0.21789582311702904 0.8834996543862713 
0.25519564327163496 0.2288848257183155 0.8822148241222867 
0.32012286529521544 0.9255396210173136 0.8569471743244641 
0.3312469418827437 0.017165599890608084 0.9871750089394637 
0.14442832743505948 0.9917676804292681 0.7568822201350559 
0.1474376963134458 0.07793320573441616 0.8787241517790728 
0.37032161473913944 0.7350961627516879 0.9048929889308723 
0.38034007249132196 0.3006855751343418 0.9119616522778572 
0.7211035358332973 0.5510813068996587 0.8948188876924175 
0.8484018440901754 0.4145539332407882 0.7875242757679184 
0.6443312218549841 0.48883433263877885 0.789676632430854 
0.5317300474362111 0.16650266270724537 0.5162539878452184 
0.6119907307428434 0.23517725507380394 0.631447023559307 
0.4586252047014254 0.2478553951890093 0.5928587286169588 
0.5532162815139318 0.4111662849550159 0.7131467857605147 
0.6311229231565755 0.48419580291945913 0.8307349120797046 
0.6266157330455174 0.24404621017317235 0.593812938995454 
0.709370648224384 0.3106905327661007 0.7057417858476619 
0.37934673887537296 0.2946216361058144 0.751767385967933 
0.5101621051715124 0.2756342580045207 0.8306212759390885 
0.9897844932905182 0.6161808564870391 0.679431232410532 
0.043583788522985736 0.8177920616337871 0.7242582492232771 
0.9489878355992103 0.6788921308276148 0.5537393489291441 
0.34398735695657706 0.6060534566628852 0.5052998393550856 
0.39023487466132517 0.5325851946524687 0.6412869977676706 
0.3488565481911772 0.4515984350700896 0.5038890948437185 
0.062521715751947 0.5990535134547994 0.5036629187019337 
0.10252922886254634 0.5247735117206449 0.6367148692990454 
0.2310520182490885 0.6880661120447715 0.5586127805263665 
0.27247667217943683 0.6235281478513371 0.6922097321876729 
0.4374146689482894 0.5893369679802324 0.9075893616207584 
0.4393305485154682 0.5884361590206962 0.7495831661677256 
0.7234514431907362 0.949601136490008 0.3779863376767395 
0.6685796054904368 0.08235195717041013 0.23025871254246819 
0.7032191996072089 0.8699880039139436 0.257921566177968 
0.11604870078791005 0.9401774997183519 0.12501895668585802 
0.5163101089077275 0.9442329562121974 0.7212521336943432 
0.5843986833425686 0.09877591839441564 0.9729756341534177 
0.9712741605690834 0.08135447415715855 0.09558293808602324 
0.8524474049616674 0.13636085167791212 0.11558597899428805 
0.4024423907564653 0.3800689024417937 0.852828977299573 
0.4014860016423555 0.6326494089870301 0.011706258384581265 
0.4215855965518148 0.4063819511486665 0.19245608755658358 
0.30002530430197516 0.1889133619982813 0.3321464845307782 
0.05791443817416185 0.0513844699961061 0.38014694836506163 
0.1884671295198378 0.8467888784439624 0.47360882050746417 
0.19253843944466026 0.9070434488833694 0.846266588843726 
0.27040688153872644 0.10080911059910705 0.8926643840494407 
0.7288233804616556 0.387033364891848 0.7467985883924053 
0.5409689048690779 0.33450409922215474 0.675275351098233 
0.11168158597684012 0.7017505153348996 0.6558897299577817 
0.2285050224813353 0.5211168960685277 0.5486508663958105 
0.8065341068224758 0.008906836281758146 0.2465782917660569 
0.031529191944867564 0.897684674591558 0.267137436537841 
0.28088801138607283 0.6085270487889837 0.8272386642265407 
0.45520270540525964 0.42524808501267947 0.8271207207081434 
